# Solution for model hydro
# Objective value = 1.4451999998519532e+03
bid_price_X_0_0_0 0
bid_price_X_0_0_1 0
bid_price_X_0_1_0 0
bid_price_X_0_1_1 0
bid_price_X_0_2_0 0
bid_price_X_0_2_1 0
bid_price_X_0_3_0 0
bid_price_X_0_3_1 0
bid_price_X_0_4_0 0
bid_price_X_0_4_1 0
bid_price_X_0_5_0 0
bid_price_X_0_5_1 0
bid_price_X_0_6_0 0
bid_price_X_0_6_1 0
bid_price_X_0_7_0 0
bid_price_X_0_7_1 0
bid_price_X_0_8_0 0
bid_price_X_0_8_1 0
bid_price_X_0_9_0 0
bid_price_X_0_9_1 0
bid_price_X_1_0_0 0
bid_price_X_1_0_1 0
bid_price_X_1_1_0 0
bid_price_X_1_1_1 0
bid_price_X_1_2_0 0
bid_price_X_1_2_1 0
bid_price_X_1_3_0 0
bid_price_X_1_3_1 0
bid_price_X_1_4_0 0
bid_price_X_1_4_1 0
bid_price_X_1_5_0 0
bid_price_X_1_5_1 0
bid_price_X_1_6_0 0
bid_price_X_1_6_1 0
bid_price_X_1_7_0 0
bid_price_X_1_7_1 0
bid_price_X_1_8_0 0
bid_price_X_1_8_1 0
bid_price_X_1_9_0 0
bid_price_X_1_9_1 0
bid_price_X_2_0_0 0
bid_price_X_2_0_1 0
bid_price_X_2_1_0 0
bid_price_X_2_1_1 0
bid_price_X_2_2_0 0
bid_price_X_2_2_1 0
bid_price_X_2_3_0 0
bid_price_X_2_3_1 0
bid_price_X_2_4_0 0
bid_price_X_2_4_1 0
bid_price_X_2_5_0 0
bid_price_X_2_5_1 0
bid_price_X_2_6_0 0
bid_price_X_2_6_1 0
bid_price_X_2_7_0 0
bid_price_X_2_7_1 0
bid_price_X_2_8_0 0
bid_price_X_2_8_1 0
bid_price_X_2_9_0 0
bid_price_X_2_9_1 0
production_quantity_X_0_0_0 1.9999999999989875e+01
production_quantity_X_0_0_1 1.7551128312924686e-11
production_quantity_X_0_0_2 0
production_quantity_X_0_1_0 1.9999999999991068e+01
production_quantity_X_0_1_1 2.2858924553522368e-11
production_quantity_X_0_1_2 0
production_quantity_X_0_2_0 1.9999999999992053e+01
production_quantity_X_0_2_1 3.3572934272491615e-11
production_quantity_X_0_2_2 0
production_quantity_X_0_3_0 1.9999999999992870e+01
production_quantity_X_0_3_1 6.6470262999421834e-11
production_quantity_X_0_3_2 0
production_quantity_X_0_4_0 1.9999999999996753e+01
production_quantity_X_0_4_1 4.6674799488848626e-10
production_quantity_X_0_4_2 0
production_quantity_X_0_5_0 1.9999999999993577e+01
production_quantity_X_0_5_1 3.9999999999915275e+01
production_quantity_X_0_5_2 0
production_quantity_X_0_6_0 1.9999999999993580e+01
production_quantity_X_0_6_1 3.9999999999971330e+01
production_quantity_X_0_6_2 0
production_quantity_X_0_7_0 1.9999999999993580e+01
production_quantity_X_0_7_1 3.9999999999984425e+01
production_quantity_X_0_7_2 0
production_quantity_X_0_8_0 1.9999999999993580e+01
production_quantity_X_0_8_1 3.9999999999990621e+01
production_quantity_X_0_8_2 0
production_quantity_X_0_9_0 0
production_quantity_X_0_9_1 2.6367646869356591e+01
production_quantity_X_0_9_2 0
production_quantity_X_1_0_0 1.9999999999991161e+01
production_quantity_X_1_0_1 2.3377367687464029e-11
production_quantity_X_1_0_2 0
production_quantity_X_1_1_0 1.9999999999992117e+01
production_quantity_X_1_1_1 3.4655059194082767e-11
production_quantity_X_1_1_2 0
production_quantity_X_1_2_0 1.9999999999992905e+01
production_quantity_X_1_2_1 7.4466334103385394e-11
production_quantity_X_1_2_2 0
production_quantity_X_1_3_0 1.9999999999993499e+01
production_quantity_X_1_3_1 9.9107840535153820e-10
production_quantity_X_1_3_2 0
production_quantity_X_1_4_0 1.9999999999996788e+01
production_quantity_X_1_4_1 3.9999999999962554e+01
production_quantity_X_1_4_2 0
production_quantity_X_1_5_0 1.9999999999993580e+01
production_quantity_X_1_5_1 3.9999999999971315e+01
production_quantity_X_1_5_2 0
production_quantity_X_1_6_0 1.9999999999993580e+01
production_quantity_X_1_6_1 3.9999999999984425e+01
production_quantity_X_1_6_2 0
production_quantity_X_1_7_0 1.9999999999993580e+01
production_quantity_X_1_7_1 3.9999999999990621e+01
production_quantity_X_1_7_2 0
production_quantity_X_1_8_0 1.9999999999993580e+01
production_quantity_X_1_8_1 3.9999999999994237e+01
production_quantity_X_1_8_2 0
production_quantity_X_1_9_0 0
production_quantity_X_1_9_1 2.6274578972061519e+01
production_quantity_X_1_9_2 0
production_quantity_X_2_0_0 1.9999999999988329e+01
production_quantity_X_2_0_1 1.4266866540514483e-11
production_quantity_X_2_0_2 0
production_quantity_X_2_1_0 1.9999999999989790e+01
production_quantity_X_2_1_1 1.7304929794296903e-11
production_quantity_X_2_1_2 0
production_quantity_X_2_2_0 1.9999999999991001e+01
production_quantity_X_2_2_1 2.2420960138540497e-11
production_quantity_X_2_2_2 0
production_quantity_X_2_3_0 1.9999999999992003e+01
production_quantity_X_2_3_1 3.2560295691952206e-11
production_quantity_X_2_3_2 0
production_quantity_X_2_4_0 1.9999999999996390e+01
production_quantity_X_2_4_1 2.8996352363315682e-11
production_quantity_X_2_4_2 0
production_quantity_X_2_5_0 1.9999999999993481e+01
production_quantity_X_2_5_1 9.5200145388548785e-10
production_quantity_X_2_5_2 0
production_quantity_X_2_6_0 1.9999999999988678e+01
production_quantity_X_2_6_1 3.9999999007560383e+01
production_quantity_X_2_6_2 0
production_quantity_X_2_7_0 1.9999999999993580e+01
production_quantity_X_2_7_1 3.9999999999970235e+01
production_quantity_X_2_7_2 0
production_quantity_X_2_8_0 1.9999999999993580e+01
production_quantity_X_2_8_1 3.9999999999984006e+01
production_quantity_X_2_8_2 0
production_quantity_X_2_9_0 0
production_quantity_X_2_9_1 4.0240750455195936e+01
production_quantity_X_2_9_2 0
storage_volume_X_X_0_0 1.7999999999999255e+02
storage_volume_X_X_0_1 1.7999999999998607e+02
storage_volume_X_X_0_2 1.7999999999997439e+02
storage_volume_X_X_0_3 1.7999999999994066e+02
storage_volume_X_X_0_4 1.7999999999953650e+02
storage_volume_X_X_0_5 1.4000000000009115e+02
storage_volume_X_X_0_6 1.4000000000003510e+02
storage_volume_X_X_0_7 1.4000000000002200e+02
storage_volume_X_X_0_8 1.4000000000001580e+02
storage_volume_X_X_0_9 1.7363235313064342e+02
storage_volume_X_X_1_0 1.5999999999997800e+02
storage_volume_X_X_1_1 1.5999999999995930e+02
storage_volume_X_X_1_2 1.5999999999990703e+02
storage_volume_X_X_1_3 1.5999999999895610e+02
storage_volume_X_X_1_4 1.1999999999957717e+02
storage_volume_X_X_1_5 8.0000000000126249e+01
storage_volume_X_X_1_6 8.0000000000057099e+01
storage_volume_X_X_1_7 8.0000000000037801e+01
storage_volume_X_X_1_8 8.0000000000027995e+01
storage_volume_X_X_1_9 1.4735777415858189e+02
storage_volume_X_X_2_0 1.3999999999997542e+02
storage_volume_X_X_2_1 1.3999999999995219e+02
storage_volume_X_X_2_2 1.3999999999989362e+02
storage_volume_X_X_2_3 1.3999999999893151e+02
storage_volume_X_X_2_4 9.9999999999551790e+01
storage_volume_X_X_2_5 5.9999999999180773e+01
storage_volume_X_X_2_6 2.0000000992508038e+01
storage_volume_X_X_2_7 2.0000000000073985e+01
storage_volume_X_X_2_8 2.0000000000050409e+01
storage_volume_X_X_2_9 1.0711702370338595e+02
b_v_X_0_0_0 1.9999999999412260e+01
b_v_X_0_0_1 5.9518272453688023e-10
b_v_X_0_1_0 1.9999999999412260e+01
b_v_X_0_1_1 6.0167209482340188e-10
b_v_X_0_2_0 1.9999999999412260e+01
b_v_X_0_2_1 6.1336871747739692e-10
b_v_X_0_3_0 1.9999999999412260e+01
b_v_X_0_3_1 6.4708435593992643e-10
b_v_X_0_4_0 1.9999999999412260e+01
b_v_X_0_4_1 1.0512539715755551e-09
b_v_X_0_5_0 1.9999999999412260e+01
b_v_X_0_5_1 4.0000000000496591e+01
b_v_X_0_6_0 1.9999999999412260e+01
b_v_X_0_6_1 4.0000000000552660e+01
b_v_X_0_7_0 1.9999999999412260e+01
b_v_X_0_7_1 4.0000000000565741e+01
b_v_X_0_8_0 1.9999999999412260e+01
b_v_X_0_8_1 4.0000000000571958e+01
b_v_X_0_9_0 1.9999999999412260e+01
b_v_X_0_9_1 6.3676468699439459e+00
b_v_X_1_0_0 1.9999999999624098e+01
b_v_X_1_0_1 3.9041024672351586e-10
b_v_X_1_1_0 1.9999999999624098e+01
b_v_X_1_1_1 4.0265970447522521e-10
b_v_X_1_2_0 1.9999999999624098e+01
b_v_X_1_2_1 4.4326542082519303e-10
b_v_X_1_3_0 1.9999999999624098e+01
b_v_X_1_3_1 1.3604653261014904e-09
b_v_X_1_4_0 1.9999999999624098e+01
b_v_X_1_4_1 4.0000000000335227e+01
b_v_X_1_5_0 1.9999999999624098e+01
b_v_X_1_5_1 4.0000000000340769e+01
b_v_X_1_6_0 1.9999999999624098e+01
b_v_X_1_6_1 4.0000000000353879e+01
b_v_X_1_7_0 1.9999999999624098e+01
b_v_X_1_7_1 4.0000000000360089e+01
b_v_X_1_8_0 1.9999999999624098e+01
b_v_X_1_8_1 4.0000000000363713e+01
b_v_X_1_9_0 1.9999999999624098e+01
b_v_X_1_9_1 6.2745789724373919e+00
b_v_X_2_0_0 1.9999999999149249e+01
b_v_X_2_0_1 8.5338796589100796e-10
b_v_X_2_1_0 1.9999999999149249e+01
b_v_X_2_1_1 8.5788787307887341e-10
b_v_X_2_2_0 1.9999999999149249e+01
b_v_X_2_2_1 8.6419310721180462e-10
b_v_X_2_3_0 1.9999999999149249e+01
b_v_X_2_3_1 8.7535186056293766e-10
b_v_X_2_4_0 1.9999999999149249e+01
b_v_X_2_4_1 8.7617553960566124e-10
b_v_X_2_5_0 1.9999999999149249e+01
b_v_X_2_5_1 1.7962792784107081e-09
b_v_X_2_6_0 1.9999999999149249e+01
b_v_X_2_6_1 3.9999999008399882e+01
b_v_X_2_7_0 1.9999999999149249e+01
b_v_X_2_7_1 4.0000000000814595e+01
b_v_X_2_8_0 1.9999999999149249e+01
b_v_X_2_8_1 4.0000000000828393e+01
b_v_X_2_9_0 1.9999999999149249e+01
b_v_X_2_9_1 2.0240750456046726e+01
p_c_0_0_0_0 40
p_c_0_0_0_1 40
p_c_0_0_1_0 32.25
p_c_0_0_1_1 32.25
p_c_0_1_0_0 40
p_c_0_1_0_1 40
p_c_0_1_1_0 33.95
p_c_0_1_1_1 33.95
p_c_0_2_0_0 40
p_c_0_2_0_1 40
p_c_0_2_1_0 35.74
p_c_0_2_1_1 35.74
p_c_0_3_0_0 40
p_c_0_3_0_1 40
p_c_0_3_1_0 37.62
p_c_0_3_1_1 37.62
p_c_0_4_0_0 40
p_c_0_4_0_1 40
p_c_0_4_1_0 39.6
p_c_0_4_1_1 39.6
p_c_0_5_0_0 40
p_c_0_5_0_1 40
p_c_0_5_1_0 41.58
p_c_0_5_1_1 41.58
p_c_0_6_0_0 40
p_c_0_6_0_1 40
p_c_0_6_1_0 43.66
p_c_0_6_1_1 43.66
p_c_0_7_0_0 40
p_c_0_7_0_1 40
p_c_0_7_1_0 45.84
p_c_0_7_1_1 45.84
p_c_0_8_0_0 40
p_c_0_8_0_1 40
p_c_0_8_1_0 48.13
p_c_0_8_1_1 48.13
p_c_0_9_0_0 40
p_c_0_9_0_1 40
p_c_0_9_1_0 50.54
p_c_0_9_1_1 50.54
p_c_1_0_0_0 42
p_c_1_0_0_1 42
p_c_1_0_1_0 33.87
p_c_1_0_1_1 33.87
p_c_1_1_0_0 42
p_c_1_1_0_1 42
p_c_1_1_1_0 35.65
p_c_1_1_1_1 35.65
p_c_1_2_0_0 42
p_c_1_2_0_1 42
p_c_1_2_1_0 37.53
p_c_1_2_1_1 37.53
p_c_1_3_0_0 42
p_c_1_3_0_1 42
p_c_1_3_1_0 39.5
p_c_1_3_1_1 39.5
p_c_1_4_0_0 42
p_c_1_4_0_1 42
p_c_1_4_1_0 41.58
p_c_1_4_1_1 41.58
p_c_1_5_0_0 42
p_c_1_5_0_1 42
p_c_1_5_1_0 43.66
p_c_1_5_1_1 43.66
p_c_1_6_0_0 42
p_c_1_6_0_1 42
p_c_1_6_1_0 45.84
p_c_1_6_1_1 45.84
p_c_1_7_0_0 42
p_c_1_7_0_1 42
p_c_1_7_1_0 48.13
p_c_1_7_1_1 48.13
p_c_1_8_0_0 42
p_c_1_8_0_1 42
p_c_1_8_1_0 50.54
p_c_1_8_1_1 50.54
p_c_1_9_0_0 42
p_c_1_9_0_1 42
p_c_1_9_1_0 53.07
p_c_1_9_1_1 53.07
p_c_2_0_0_0 38
p_c_2_0_0_1 38
p_c_2_0_1_0 30.64
p_c_2_0_1_1 30.64
p_c_2_1_0_0 38
p_c_2_1_0_1 38
p_c_2_1_1_0 32.25
p_c_2_1_1_1 32.25
p_c_2_2_0_0 38
p_c_2_2_0_1 38
p_c_2_2_1_0 33.95
p_c_2_2_1_1 33.95
p_c_2_3_0_0 38
p_c_2_3_0_1 38
p_c_2_3_1_0 35.74
p_c_2_3_1_1 35.74
p_c_2_4_0_0 38
p_c_2_4_0_1 38
p_c_2_4_1_0 37.62
p_c_2_4_1_1 37.62
p_c_2_5_0_0 38
p_c_2_5_0_1 38
p_c_2_5_1_0 39.5
p_c_2_5_1_1 39.5
p_c_2_6_0_0 38
p_c_2_6_0_1 38
p_c_2_6_1_0 41.48
p_c_2_6_1_1 41.48
p_c_2_7_0_0 38
p_c_2_7_0_1 38
p_c_2_7_1_0 43.55
p_c_2_7_1_1 43.55
p_c_2_8_0_0 38
p_c_2_8_0_1 38
p_c_2_8_1_0 45.73
p_c_2_8_1_1 45.73
p_c_2_9_0_0 38
p_c_2_9_0_1 38
p_c_2_9_1_0 48.02
p_c_2_9_1_1 48.02
v_c_0_0_0_0 1.9999999999412260e+01
v_c_0_0_0_1 0
v_c_0_0_1_0 0
v_c_0_0_1_1 5.9518272453688023e-10
v_c_0_1_0_0 1.9999999999412257e+01
v_c_0_1_0_1 0
v_c_0_1_1_0 0
v_c_0_1_1_1 6.0167209482340188e-10
v_c_0_2_0_0 1.9999999999412264e+01
v_c_0_2_0_1 0
v_c_0_2_1_0 0
v_c_0_2_1_1 6.1336871747739692e-10
v_c_0_3_0_0 1.9999999999412260e+01
v_c_0_3_0_1 0
v_c_0_3_1_0 0
v_c_0_3_1_1 6.4708435593992643e-10
v_c_0_4_0_0 1.9999999999412257e+01
v_c_0_4_0_1 0
v_c_0_4_1_0 0
v_c_0_4_1_1 1.0512539715755551e-09
v_c_0_5_0_0 1.9999999999412260e+01
v_c_0_5_0_1 0
v_c_0_5_1_0 0
v_c_0_5_1_1 4.0000000000496591e+01
v_c_0_6_0_0 1.9999999999412253e+01
v_c_0_6_0_1 0
v_c_0_6_1_0 0
v_c_0_6_1_1 4.0000000000552660e+01
v_c_0_7_0_0 1.9999999999412260e+01
v_c_0_7_0_1 0
v_c_0_7_1_0 0
v_c_0_7_1_1 4.0000000000565741e+01
v_c_0_8_0_0 1.9999999999412257e+01
v_c_0_8_0_1 0
v_c_0_8_1_0 0
v_c_0_8_1_1 4.0000000000571958e+01
v_c_0_9_0_0 1.9999999999412250e+01
v_c_0_9_0_1 0
v_c_0_9_1_0 0
v_c_0_9_1_1 6.3676468699439459e+00
v_c_1_0_0_0 1.9999999999624098e+01
v_c_1_0_0_1 0
v_c_1_0_1_0 0
v_c_1_0_1_1 3.9041024672351586e-10
v_c_1_1_0_0 1.9999999999624112e+01
v_c_1_1_0_1 0
v_c_1_1_1_0 0
v_c_1_1_1_1 4.0265970447522521e-10
v_c_1_2_0_0 1.9999999999624112e+01
v_c_1_2_0_1 0
v_c_1_2_1_0 0
v_c_1_2_1_1 4.4326542082519303e-10
v_c_1_3_0_0 1.9999999999624112e+01
v_c_1_3_0_1 0
v_c_1_3_1_0 0
v_c_1_3_1_1 1.3604653261014904e-09
v_c_1_4_0_0 1.9999999999624112e+01
v_c_1_4_0_1 0
v_c_1_4_1_0 0
v_c_1_4_1_1 4.0000000000335227e+01
v_c_1_5_0_0 1.9999999999624119e+01
v_c_1_5_0_1 0
v_c_1_5_1_0 0
v_c_1_5_1_1 4.0000000000340769e+01
v_c_1_6_0_0 1.9999999999624123e+01
v_c_1_6_0_1 0
v_c_1_6_1_0 0
v_c_1_6_1_1 4.0000000000353879e+01
v_c_1_7_0_0 1.9999999999624116e+01
v_c_1_7_0_1 0
v_c_1_7_1_0 0
v_c_1_7_1_1 4.0000000000360089e+01
v_c_1_8_0_0 1.9999999999624112e+01
v_c_1_8_0_1 0
v_c_1_8_1_0 0
v_c_1_8_1_1 4.0000000000363713e+01
v_c_1_9_0_0 1.9999999999624109e+01
v_c_1_9_0_1 0
v_c_1_9_1_0 0
v_c_1_9_1_1 6.2745789724373919e+00
v_c_2_0_0_0 1.9999999999149249e+01
v_c_2_0_0_1 0
v_c_2_0_1_0 0
v_c_2_0_1_1 8.5338796589100796e-10
v_c_2_1_0_0 1.9999999999149207e+01
v_c_2_1_0_1 0
v_c_2_1_1_0 0
v_c_2_1_1_1 8.5788787307887341e-10
v_c_2_2_0_0 1.9999999999149235e+01
v_c_2_2_0_1 0
v_c_2_2_1_0 0
v_c_2_2_1_1 8.6419310721180462e-10
v_c_2_3_0_0 1.9999999999149214e+01
v_c_2_3_0_1 0
v_c_2_3_1_0 0
v_c_2_3_1_1 8.7535186056293766e-10
v_c_2_4_0_0 1.9999999999149214e+01
v_c_2_4_0_1 0
v_c_2_4_1_0 0
v_c_2_4_1_1 8.7617553960566124e-10
v_c_2_5_0_0 1.9999999999149203e+01
v_c_2_5_0_1 0
v_c_2_5_1_0 0
v_c_2_5_1_1 1.7962792784107081e-09
v_c_2_6_0_0 1.9999999999149214e+01
v_c_2_6_0_1 0
v_c_2_6_1_0 0
v_c_2_6_1_1 3.9999999008399882e+01
v_c_2_7_0_0 1.9999999999149200e+01
v_c_2_7_0_1 0
v_c_2_7_1_0 0
v_c_2_7_1_1 4.0000000000814595e+01
v_c_2_8_0_0 1.9999999999149210e+01
v_c_2_8_0_1 0
v_c_2_8_1_0 0
v_c_2_8_1_1 4.0000000000828393e+01
v_c_2_9_0_0 1.9999999999149210e+01
v_c_2_9_0_1 0
v_c_2_9_1_0 0
v_c_2_9_1_1 2.0240750456046726e+01
pi_c_0_0_0_0 7.9999999997649013e+02
pi_c_0_0_0_1 0
pi_c_0_0_1_0 0
pi_c_0_0_1_1 1.9194642866034867e-08
pi_c_0_1_0_0 7.9999999997649002e+02
pi_c_0_1_0_1 0
pi_c_0_1_1_0 0
pi_c_0_1_1_1 2.0426767619171823e-08
pi_c_0_2_0_0 7.9999999997649024e+02
pi_c_0_2_0_1 0
pi_c_0_2_1_0 0
pi_c_0_2_1_1 2.1921797962618991e-08
pi_c_0_3_0_0 7.9999999997649013e+02
pi_c_0_3_0_1 0
pi_c_0_3_1_0 0
pi_c_0_3_1_1 2.4343313470695169e-08
pi_c_0_4_0_0 7.9999999997649081e+02
pi_c_0_4_0_1 0
pi_c_0_4_1_0 0
pi_c_0_4_1_1 4.1629657274774162e-08
pi_c_0_5_0_0 7.9999999997649024e+02
pi_c_0_5_0_1 0
pi_c_0_5_1_0 0
pi_c_0_5_1_1 1.6632000000206488e+03
pi_c_0_6_0_0 7.9999999997649024e+02
pi_c_0_6_0_1 0
pi_c_0_6_1_0 0
pi_c_0_6_1_1 1.7464000000241285e+03
pi_c_0_7_0_0 7.9999999997649024e+02
pi_c_0_7_0_1 0
pi_c_0_7_1_0 0
pi_c_0_7_1_1 1.8336000000259337e+03
pi_c_0_8_0_0 7.9999999997649002e+02
pi_c_0_8_0_1 0
pi_c_0_8_1_0 0
pi_c_0_8_1_1 1.9252000000275293e+03
pi_c_0_9_0_0 7.9999999997648990e+02
pi_c_0_9_0_1 0
pi_c_0_9_1_0 0
pi_c_0_9_1_1 3.2182087280696697e+02
pi_c_1_0_0_0 8.3999999998421310e+02
pi_c_1_0_0_1 0
pi_c_1_0_1_0 0
pi_c_1_0_1_1 1.3223195056608593e-08
pi_c_1_1_0_0 8.3999999998421299e+02
pi_c_1_1_0_1 0
pi_c_1_1_1_0 0
pi_c_1_1_1_1 1.4354818464435391e-08
pi_c_1_2_0_0 8.3999999998421265e+02
pi_c_1_2_0_1 0
pi_c_1_2_1_0 0
pi_c_1_2_1_1 1.6635751243459888e-08
pi_c_1_3_0_0 8.3999999998421276e+02
pi_c_1_3_0_1 0
pi_c_1_3_1_0 0
pi_c_1_3_1_1 5.3738380381869455e-08
pi_c_1_4_0_0 8.3999999998421231e+02
pi_c_1_4_0_1 0
pi_c_1_4_1_0 0
pi_c_1_4_1_1 1.6632000000139390e+03
pi_c_1_5_0_0 8.3999999998421276e+02
pi_c_1_5_0_1 0
pi_c_1_5_1_0 0
pi_c_1_5_1_1 1.7464000000148787e+03
pi_c_1_6_0_0 8.3999999998421356e+02
pi_c_1_6_0_1 0
pi_c_1_6_1_0 0
pi_c_1_6_1_1 1.8336000000162226e+03
pi_c_1_7_0_0 8.3999999998421276e+02
pi_c_1_7_0_1 0
pi_c_1_7_1_0 0
pi_c_1_7_1_1 1.9252000000173307e+03
pi_c_1_8_0_0 8.3999999998421276e+02
pi_c_1_8_0_1 0
pi_c_1_8_1_0 0
pi_c_1_8_1_1 2.0216000000183822e+03
pi_c_1_9_0_0 8.3999999998421299e+02
pi_c_1_9_0_1 0
pi_c_1_9_1_0 0
pi_c_1_9_1_1 3.3299190606725250e+02
pi_c_2_0_0_0 7.5999999996766996e+02
pi_c_2_0_0_1 0
pi_c_2_0_1_0 0
pi_c_2_0_1_1 2.6147807275075582e-08
pi_c_2_1_0_0 7.5999999996766985e+02
pi_c_2_1_0_1 0
pi_c_2_1_1_0 0
pi_c_2_1_1_1 2.7666883906703882e-08
pi_c_2_2_0_0 7.5999999996767076e+02
pi_c_2_2_0_1 0
pi_c_2_2_1_0 0
pi_c_2_2_1_1 2.9339355990054897e-08
pi_c_2_3_0_0 7.5999999996766996e+02
pi_c_2_3_0_1 0
pi_c_2_3_1_0 0
pi_c_2_3_1_1 3.1285075496791798e-08
pi_c_2_4_0_0 7.5999999996767042e+02
pi_c_2_4_0_1 0
pi_c_2_4_1_0 0
pi_c_2_4_1_1 3.2961723799625892e-08
pi_c_2_5_0_0 7.5999999996766962e+02
pi_c_2_5_0_1 0
pi_c_2_5_1_0 0
pi_c_2_5_1_1 7.0953031497920926e-08
pi_c_2_6_0_0 7.5999999996766894e+02
pi_c_2_6_0_1 0
pi_c_2_6_1_0 0
pi_c_2_6_1_1 1.6591999588684266e+03
pi_c_2_7_0_0 7.5999999996766974e+02
pi_c_2_7_0_1 0
pi_c_2_7_1_0 0
pi_c_2_7_1_1 1.7420000000354758e+03
pi_c_2_8_0_0 7.5999999996766996e+02
pi_c_2_8_0_1 0
pi_c_2_8_1_0 0
pi_c_2_8_1_1 1.8292000000378819e+03
pi_c_2_9_0_0 7.5999999996766985e+02
pi_c_2_9_0_1 0
pi_c_2_9_1_0 0
pi_c_2_9_1_1 9.7196083689936415e+02
